28 76 3 29 24 55 25 67 39 56 74 22 41 43 14 91 100 97 13 
27 69 30 20 66 65 71 35 34 78 79 33 81 9 51 32 90 10 70 1 
31 88 62 11 63 64 49 36 46 45 17 86 38 44 16 61 84 5 85 93 96 6 26 80 68 77 50 
52 7 19 47 48 82 8 83 60 18 89 
94 95 99 59 92 98 37 87 42 15 57 2 58 
53 40 21 73 72 75 23 4 54 12 
